13895
13903
13906
13914
13932
13947
13967
13996
14036
14039
14039
14039
14039
14039
14039
14039
14039
14039
14039
14039
14039
14039
14039
14039
14039
14039
14039
14039
14039
14039
14039
14039
14039
14039
14039
14039
14039
14039
14039
14039
14039
14039
14039
14039
14039
14039
14039
14039
14039
14039
14039
14039
14039
14039
14039
14039
14039
14039
14039
14039
14039
14039
14039
14039
14039
14039
14039
14039
14039
14039
14039
14039
14039
14039
14039
14039
14039
14039
14039
14039
14039
14039
14039
14039
14039
14039
14039
14039
14039
14039
14039
14039
14039
14039
14039
14039
14039
14039
14039
